examples/dynamic/debug9/ball_count_1d_plain.02.qfree_global_4.smt2
(set-info :smt-lib-version 2.6)
(set-logic QF_NRA)
(set-info :source |Benchmarks generated from hycomp (https://es-static.fbk.eu/tools/hycomp/). BMC instances of non-linear hybrid automata taken from: Alessandro Cimatti, Sergio Mover, Stefano Tonetta, A quantifier-free SMT encoding of non-linear hybrid automata, FMCAD 2012 and Alessandro Cimatti, Sergio Mover, Stefano Tonetta, Quantier-free encoding of invariants for Hybrid Systems, Formal Methods in System Design. This instance solves a BMC problem of depth 4 and uses the encoding obtained with quantifier elimination using qepcad encoding. Contacts: Sergio Mover (mover@fbk.eu), Stefano Tonetta (tonettas@fbk.eu), Alessandro Cimatti (cimatti@fbk.eu).|)
(set-info :category "industrial")
(set-info :status sat)
;; MathSAT API call trace
;; generated on Mon Mar 19 10:47:24 2012
(declare-fun b.counter.0__AT0 () Bool)
(declare-fun b.counter.1__AT4 () Bool)
(declare-fun b.time__AT3 () Real)
(declare-fun b.counter.1__AT3 () Bool)
(declare-fun b.counter.2__AT0 () Bool)
(declare-fun b.counter.2__AT4 () Bool)
(declare-fun b.counter.1__AT0 () Bool)
(declare-fun b.delta__AT3 () Real)
(declare-fun b.counter.2__AT3 () Bool)
(declare-fun b.counter.1__AT1 () Bool)
(declare-fun b.time__AT4 () Real)
(declare-fun b.counter.3__AT4 () Bool)
(declare-fun b.EVENT.0__AT3 () Bool)
(declare-fun b.counter.3__AT3 () Bool)
(declare-fun b.counter.2__AT1 () Bool)
(declare-fun b.EVENT.1__AT3 () Bool)
(declare-fun b.event_is_timed__AT4 () Bool)
(declare-fun speed_loss__AT0 () Real)
(declare-fun b.speed_y__AT3 () Real)
(declare-fun b.speed_y__AT0 () Real)
(declare-fun b.speed_y__AT2 () Real)
(declare-fun b.y__AT4 () Real)
(declare-fun b.event_is_timed__AT1 () Bool)
(declare-fun b.counter.0__AT2 () Bool)
(declare-fun b.counter.2__AT2 () Bool)
(declare-fun b.event_is_timed__AT0 () Bool)
(declare-fun b.counter.1__AT2 () Bool)
(declare-fun b.counter.3__AT2 () Bool)
(declare-fun b.counter.3__AT1 () Bool)
(declare-fun b.delta__AT4 () Real)
(declare-fun b.delta__AT0 () Real)
(declare-fun b.EVENT.0__AT4 () Bool)
(declare-fun b.y__AT1 () Real)
(declare-fun b.EVENT.1__AT4 () Bool)
(declare-fun b.counter.0__AT1 () Bool)
(declare-fun b.counter.3__AT0 () Bool)
(declare-fun b.speed_y__AT4 () Real)
(declare-fun b.delta__AT1 () Real)
(declare-fun b.event_is_timed__AT2 () Bool)
(declare-fun b.EVENT.0__AT1 () Bool)
(declare-fun b.EVENT.1__AT0 () Bool)
(declare-fun b.EVENT.1__AT1 () Bool)
(declare-fun b.EVENT.0__AT0 () Bool)
(declare-fun b.time__AT1 () Real)
(declare-fun b.speed_y__AT1 () Real)
(declare-fun b.time__AT0 () Real)
(declare-fun b.time__AT2 () Real)
(declare-fun b.event_is_timed__AT3 () Bool)
(declare-fun b.delta__AT2 () Real)
(declare-fun b.EVENT.0__AT2 () Bool)
(declare-fun b.y__AT3 () Real)
(declare-fun b.y__AT0 () Real)
(declare-fun b.counter.0__AT4 () Bool)
(declare-fun b.y__AT2 () Real)
(declare-fun b.EVENT.1__AT2 () Bool)
(declare-fun b.counter.0__AT3 () Bool)
(assert (let ((.def_725 (* 49.0 b.delta__AT4)))
(let ((.def_726 (* b.delta__AT4 .def_725)))
(let ((.def_727 (* (- 1.0) .def_726)))
(let ((.def_723 (* 10.0 b.delta__AT4)))
(let ((.def_724 (* b.speed_y__AT4 .def_723)))
(let ((.def_728 (+ .def_724 .def_727)))
(let ((.def_729 (* 10.0 b.y__AT4)))
(let ((.def_731 (+ .def_729 .def_728)))
(let ((.def_732 (<= 0.0 .def_731)))
(let ((.def_710 (<= 0.0 b.y__AT4)))
(let ((.def_733 (and .def_710 .def_732)))
(let ((.def_721 (<= 0.0 b.delta__AT4)))
(let ((.def_722 (not .def_721)))
(let ((.def_734 (or .def_722 .def_733)))
(let ((.def_707 (not b.EVENT.0__AT4)))
(let ((.def_705 (not b.EVENT.1__AT4)))
(let ((.def_718 (and .def_705 .def_707)))
(let ((.def_719 (not .def_718)))
(let ((.def_735 (or .def_719 .def_734)))
(let ((.def_437 (not b.counter.0__AT3)))
(let ((.def_425 (not b.counter.1__AT3)))
(let ((.def_714 (and .def_425 .def_437)))
(let ((.def_432 (not b.counter.2__AT3)))
(let ((.def_715 (and .def_432 .def_714)))
(let ((.def_55 (<= speed_loss__AT0 (/ 1 2))))
(let ((.def_52 (<= (/ 1 10) speed_loss__AT0)))
(let ((.def_56 (and .def_52 .def_55)))
(let ((.def_711 (and .def_56 .def_710)))
(let ((.def_708 (or .def_705 .def_707)))
(let ((.def_6 (not b.counter.0__AT4)))
(let ((.def_4 (not b.counter.1__AT4)))
(let ((.def_698 (or .def_4 .def_6)))
(let ((.def_702 (or b.counter.3__AT4 .def_698)))
(let ((.def_699 (or b.counter.2__AT4 .def_698)))
(let ((.def_9 (not b.counter.2__AT4)))
(let ((.def_697 (or .def_6 .def_9)))
(let ((.def_700 (and .def_697 .def_699)))
(let ((.def_605 (not b.counter.3__AT4)))
(let ((.def_701 (or .def_605 .def_700)))
(let ((.def_703 (and .def_701 .def_702)))
(let ((.def_709 (and .def_703 .def_708)))
(let ((.def_712 (and .def_709 .def_711)))
(let ((.def_563 (<= 0.0 b.delta__AT3)))
(let ((.def_549 (not b.EVENT.0__AT3)))
(let ((.def_547 (not b.EVENT.1__AT3)))
(let ((.def_560 (and .def_547 .def_549)))
(let ((.def_561 (not .def_560)))
(let ((.def_693 (or .def_561 .def_563)))
(let ((.def_694 (or b.EVENT.1__AT3 .def_693)))
(let ((.def_627 (= b.counter.0__AT4 b.counter.0__AT3)))
(let ((.def_625 (= b.counter.1__AT4 b.counter.1__AT3)))
(let ((.def_623 (= b.counter.2__AT4 b.counter.2__AT3)))
(let ((.def_622 (= b.counter.3__AT3 b.counter.3__AT4)))
(let ((.def_624 (and .def_622 .def_623)))
(let ((.def_626 (and .def_624 .def_625)))
(let ((.def_628 (and .def_626 .def_627)))
(let ((.def_690 (or .def_561 .def_628)))
(let ((.def_691 (or b.EVENT.1__AT3 .def_690)))
(let ((.def_678 (* (- 5.0) b.speed_y__AT4)))
(let ((.def_679 (* (- 49.0) b.delta__AT3)))
(let ((.def_683 (+ .def_679 .def_678)))
(let ((.def_681 (* 5.0 b.speed_y__AT3)))
(let ((.def_684 (+ .def_681 .def_683)))
(let ((.def_685 (= .def_684 0.0 )))
(let ((.def_669 (* b.speed_y__AT3 b.delta__AT3)))
(let ((.def_670 (* 10.0 .def_669)))
(let ((.def_667 (* b.delta__AT3 b.delta__AT3)))
(let ((.def_668 (* (- 49.0) .def_667)))
(let ((.def_671 (+ .def_668 .def_670)))
(let ((.def_672 (* (- 10.0) b.y__AT4)))
(let ((.def_675 (+ .def_672 .def_671)))
(let ((.def_571 (* 10.0 b.y__AT3)))
(let ((.def_676 (+ .def_571 .def_675)))
(let ((.def_677 (= .def_676 0.0 )))
(let ((.def_686 (and .def_677 .def_685)))
(let ((.def_687 (or .def_561 .def_686)))
(let ((.def_633 (= b.y__AT3 b.y__AT4)))
(let ((.def_621 (= b.speed_y__AT3 b.speed_y__AT4)))
(let ((.def_664 (and .def_621 .def_633)))
(let ((.def_661 (= b.delta__AT3 0.0 )))
(let ((.def_662 (and .def_560 .def_661)))
(let ((.def_663 (not .def_662)))
(let ((.def_665 (or .def_663 .def_664)))
(let ((.def_666 (or b.EVENT.1__AT3 .def_665)))
(let ((.def_688 (and .def_666 .def_687)))
(let ((.def_643 (= b.time__AT3 b.time__AT4)))
(let ((.def_655 (and .def_633 .def_643)))
(let ((.def_656 (and .def_621 .def_655)))
(let ((.def_657 (and .def_628 .def_656)))
(let ((.def_658 (or .def_547 .def_657)))
(let ((.def_646 (* (- 1.0) b.time__AT4)))
(let ((.def_649 (+ b.delta__AT3 .def_646)))
(let ((.def_650 (+ b.time__AT3 .def_649)))
(let ((.def_651 (= .def_650 0.0 )))
(let ((.def_652 (or .def_561 .def_651)))
(let ((.def_653 (or b.EVENT.1__AT3 .def_652)))
(let ((.def_644 (or .def_560 .def_643)))
(let ((.def_645 (or b.EVENT.1__AT3 .def_644)))
(let ((.def_654 (and .def_645 .def_653)))
(let ((.def_659 (and .def_654 .def_658)))
(let ((.def_639 (= .def_561 b.event_is_timed__AT4)))
(let ((.def_637 (= b.event_is_timed__AT3 .def_560)))
(let ((.def_640 (and .def_637 .def_639)))
(let ((.def_629 (and .def_621 .def_628)))
(let ((.def_580 (<= 0.0 b.speed_y__AT3)))
(let ((.def_581 (not .def_580)))
(let ((.def_579 (= b.y__AT3 0.0 )))
(let ((.def_582 (and .def_579 .def_581)))
(let ((.def_630 (or .def_582 .def_629)))
(let ((.def_596 (or .def_6 b.counter.0__AT3)))
(let ((.def_595 (or b.counter.0__AT4 .def_437)))
(let ((.def_597 (and .def_595 .def_596)))
(let ((.def_598 (and .def_4 .def_597)))
(let ((.def_599 (or b.counter.1__AT3 .def_598)))
(let ((.def_594 (or b.counter.1__AT4 .def_425)))
(let ((.def_600 (and .def_594 .def_599)))
(let ((.def_613 (and .def_9 .def_600)))
(let ((.def_614 (or b.counter.2__AT3 .def_613)))
(let ((.def_608 (and .def_4 .def_437)))
(let ((.def_609 (or b.counter.1__AT3 .def_608)))
(let ((.def_610 (and .def_594 .def_609)))
(let ((.def_611 (and b.counter.2__AT4 .def_610)))
(let ((.def_612 (or .def_432 .def_611)))
(let ((.def_615 (and .def_612 .def_614)))
(let ((.def_616 (and b.counter.3__AT4 .def_615)))
(let ((.def_617 (or b.counter.3__AT3 .def_616)))
(let ((.def_601 (and b.counter.2__AT4 .def_600)))
(let ((.def_602 (or b.counter.2__AT3 .def_601)))
(let ((.def_590 (or b.counter.1__AT4 b.counter.1__AT3)))
(let ((.def_588 (and .def_4 b.counter.0__AT4)))
(let ((.def_589 (or .def_425 .def_588)))
(let ((.def_591 (and .def_589 .def_590)))
(let ((.def_592 (and .def_9 .def_591)))
(let ((.def_593 (or .def_432 .def_592)))
(let ((.def_603 (and .def_593 .def_602)))
(let ((.def_606 (and .def_603 .def_605)))
(let ((.def_447 (not b.counter.3__AT3)))
(let ((.def_607 (or .def_447 .def_606)))
(let ((.def_618 (and .def_607 .def_617)))
(let ((.def_584 (* (- 1.0) b.speed_y__AT3)))
(let ((.def_89 (* (- 1.0) speed_loss__AT0)))
(let ((.def_90 (+ 1.0 .def_89)))
(let ((.def_585 (* .def_90 .def_584)))
(let ((.def_587 (= .def_585 b.speed_y__AT4)))
(let ((.def_619 (and .def_587 .def_618)))
(let ((.def_583 (not .def_582)))
(let ((.def_620 (or .def_583 .def_619)))
(let ((.def_631 (and .def_620 .def_630)))
(let ((.def_634 (and .def_631 .def_633)))
(let ((.def_635 (or .def_560 .def_634)))
(let ((.def_636 (or b.EVENT.1__AT3 .def_635)))
(let ((.def_641 (and .def_636 .def_640)))
(let ((.def_660 (and .def_641 .def_659)))
(let ((.def_689 (and .def_660 .def_688)))
(let ((.def_692 (and .def_689 .def_691)))
(let ((.def_695 (and .def_692 .def_694)))
(let ((.def_696 (and .def_547 .def_695)))
(let ((.def_713 (and .def_696 .def_712)))
(let ((.def_716 (and .def_713 .def_715)))
(let ((.def_567 (* 49.0 b.delta__AT3)))
(let ((.def_568 (* b.delta__AT3 .def_567)))
(let ((.def_569 (* (- 1.0) .def_568)))
(let ((.def_565 (* 10.0 b.delta__AT3)))
(let ((.def_566 (* b.speed_y__AT3 .def_565)))
(let ((.def_570 (+ .def_566 .def_569)))
(let ((.def_573 (+ .def_571 .def_570)))
(let ((.def_574 (<= 0.0 .def_573)))
(let ((.def_552 (<= 0.0 b.y__AT3)))
(let ((.def_575 (and .def_552 .def_574)))
(let ((.def_564 (not .def_563)))
(let ((.def_576 (or .def_564 .def_575)))
(let ((.def_577 (or .def_561 .def_576)))
(let ((.def_273 (not b.counter.0__AT2)))
(let ((.def_261 (not b.counter.1__AT2)))
(let ((.def_556 (and .def_261 .def_273)))
(let ((.def_268 (not b.counter.2__AT2)))
(let ((.def_557 (and .def_268 .def_556)))
(let ((.def_553 (and .def_56 .def_552)))
(let ((.def_550 (or .def_547 .def_549)))
(let ((.def_540 (or .def_425 .def_437)))
(let ((.def_544 (or b.counter.3__AT3 .def_540)))
(let ((.def_541 (or b.counter.2__AT3 .def_540)))
(let ((.def_539 (or .def_432 .def_437)))
(let ((.def_542 (and .def_539 .def_541)))
(let ((.def_543 (or .def_447 .def_542)))
(let ((.def_545 (and .def_543 .def_544)))
(let ((.def_551 (and .def_545 .def_550)))
(let ((.def_554 (and .def_551 .def_553)))
(let ((.def_399 (<= 0.0 b.delta__AT2)))
(let ((.def_385 (not b.EVENT.0__AT2)))
(let ((.def_383 (not b.EVENT.1__AT2)))
(let ((.def_396 (and .def_383 .def_385)))
(let ((.def_397 (not .def_396)))
(let ((.def_535 (or .def_397 .def_399)))
(let ((.def_536 (or b.EVENT.1__AT2 .def_535)))
(let ((.def_469 (= b.counter.0__AT2 b.counter.0__AT3)))
(let ((.def_467 (= b.counter.1__AT2 b.counter.1__AT3)))
(let ((.def_465 (= b.counter.2__AT2 b.counter.2__AT3)))
(let ((.def_464 (= b.counter.3__AT2 b.counter.3__AT3)))
(let ((.def_466 (and .def_464 .def_465)))
(let ((.def_468 (and .def_466 .def_467)))
(let ((.def_470 (and .def_468 .def_469)))
(let ((.def_532 (or .def_397 .def_470)))
(let ((.def_533 (or b.EVENT.1__AT2 .def_532)))
(let ((.def_520 (* (- 5.0) b.speed_y__AT3)))
(let ((.def_521 (* (- 49.0) b.delta__AT2)))
(let ((.def_525 (+ .def_521 .def_520)))
(let ((.def_523 (* 5.0 b.speed_y__AT2)))
(let ((.def_526 (+ .def_523 .def_525)))
(let ((.def_527 (= .def_526 0.0 )))
(let ((.def_511 (* b.speed_y__AT2 b.delta__AT2)))
(let ((.def_512 (* 10.0 .def_511)))
(let ((.def_509 (* b.delta__AT2 b.delta__AT2)))
(let ((.def_510 (* (- 49.0) .def_509)))
(let ((.def_513 (+ .def_510 .def_512)))
(let ((.def_514 (* (- 10.0) b.y__AT3)))
(let ((.def_517 (+ .def_514 .def_513)))
(let ((.def_407 (* 10.0 b.y__AT2)))
(let ((.def_518 (+ .def_407 .def_517)))
(let ((.def_519 (= .def_518 0.0 )))
(let ((.def_528 (and .def_519 .def_527)))
(let ((.def_529 (or .def_397 .def_528)))
(let ((.def_475 (= b.y__AT2 b.y__AT3)))
(let ((.def_463 (= b.speed_y__AT2 b.speed_y__AT3)))
(let ((.def_506 (and .def_463 .def_475)))
(let ((.def_503 (= b.delta__AT2 0.0 )))
(let ((.def_504 (and .def_396 .def_503)))
(let ((.def_505 (not .def_504)))
(let ((.def_507 (or .def_505 .def_506)))
(let ((.def_508 (or b.EVENT.1__AT2 .def_507)))
(let ((.def_530 (and .def_508 .def_529)))
(let ((.def_485 (= b.time__AT2 b.time__AT3)))
(let ((.def_497 (and .def_475 .def_485)))
(let ((.def_498 (and .def_463 .def_497)))
(let ((.def_499 (and .def_470 .def_498)))
(let ((.def_500 (or .def_383 .def_499)))
(let ((.def_488 (* (- 1.0) b.time__AT3)))
(let ((.def_491 (+ b.delta__AT2 .def_488)))
(let ((.def_492 (+ b.time__AT2 .def_491)))
(let ((.def_493 (= .def_492 0.0 )))
(let ((.def_494 (or .def_397 .def_493)))
(let ((.def_495 (or b.EVENT.1__AT2 .def_494)))
(let ((.def_486 (or .def_396 .def_485)))
(let ((.def_487 (or b.EVENT.1__AT2 .def_486)))
(let ((.def_496 (and .def_487 .def_495)))
(let ((.def_501 (and .def_496 .def_500)))
(let ((.def_481 (= .def_397 b.event_is_timed__AT3)))
(let ((.def_479 (= b.event_is_timed__AT2 .def_396)))
(let ((.def_482 (and .def_479 .def_481)))
(let ((.def_471 (and .def_463 .def_470)))
(let ((.def_416 (<= 0.0 b.speed_y__AT2)))
(let ((.def_417 (not .def_416)))
(let ((.def_415 (= b.y__AT2 0.0 )))
(let ((.def_418 (and .def_415 .def_417)))
(let ((.def_472 (or .def_418 .def_471)))
(let ((.def_438 (or b.counter.0__AT2 .def_437)))
(let ((.def_436 (or .def_273 b.counter.0__AT3)))
(let ((.def_439 (and .def_436 .def_438)))
(let ((.def_440 (and .def_425 .def_439)))
(let ((.def_441 (or b.counter.1__AT2 .def_440)))
(let ((.def_435 (or .def_261 b.counter.1__AT3)))
(let ((.def_442 (and .def_435 .def_441)))
(let ((.def_455 (and .def_432 .def_442)))
(let ((.def_456 (or b.counter.2__AT2 .def_455)))
(let ((.def_450 (and .def_273 .def_425)))
(let ((.def_451 (or b.counter.1__AT2 .def_450)))
(let ((.def_452 (and .def_435 .def_451)))
(let ((.def_453 (and b.counter.2__AT3 .def_452)))
(let ((.def_454 (or .def_268 .def_453)))
(let ((.def_457 (and .def_454 .def_456)))
(let ((.def_458 (and b.counter.3__AT3 .def_457)))
(let ((.def_459 (or b.counter.3__AT2 .def_458)))
(let ((.def_443 (and b.counter.2__AT3 .def_442)))
(let ((.def_444 (or b.counter.2__AT2 .def_443)))
(let ((.def_429 (or b.counter.1__AT2 b.counter.1__AT3)))
(let ((.def_427 (and .def_425 b.counter.0__AT3)))
(let ((.def_428 (or .def_261 .def_427)))
(let ((.def_430 (and .def_428 .def_429)))
(let ((.def_433 (and .def_430 .def_432)))
(let ((.def_434 (or .def_268 .def_433)))
(let ((.def_445 (and .def_434 .def_444)))
(let ((.def_448 (and .def_445 .def_447)))
(let ((.def_283 (not b.counter.3__AT2)))
(let ((.def_449 (or .def_283 .def_448)))
(let ((.def_460 (and .def_449 .def_459)))
(let ((.def_420 (* (- 1.0) b.speed_y__AT2)))
(let ((.def_421 (* .def_90 .def_420)))
(let ((.def_423 (= .def_421 b.speed_y__AT3)))
(let ((.def_461 (and .def_423 .def_460)))
(let ((.def_419 (not .def_418)))
(let ((.def_462 (or .def_419 .def_461)))
(let ((.def_473 (and .def_462 .def_472)))
(let ((.def_476 (and .def_473 .def_475)))
(let ((.def_477 (or .def_396 .def_476)))
(let ((.def_478 (or b.EVENT.1__AT2 .def_477)))
(let ((.def_483 (and .def_478 .def_482)))
(let ((.def_502 (and .def_483 .def_501)))
(let ((.def_531 (and .def_502 .def_530)))
(let ((.def_534 (and .def_531 .def_533)))
(let ((.def_537 (and .def_534 .def_536)))
(let ((.def_538 (and .def_383 .def_537)))
(let ((.def_555 (and .def_538 .def_554)))
(let ((.def_558 (and .def_555 .def_557)))
(let ((.def_403 (* 49.0 b.delta__AT2)))
(let ((.def_404 (* b.delta__AT2 .def_403)))
(let ((.def_405 (* (- 1.0) .def_404)))
(let ((.def_401 (* 10.0 b.delta__AT2)))
(let ((.def_402 (* b.speed_y__AT2 .def_401)))
(let ((.def_406 (+ .def_402 .def_405)))
(let ((.def_409 (+ .def_407 .def_406)))
(let ((.def_410 (<= 0.0 .def_409)))
(let ((.def_388 (<= 0.0 b.y__AT2)))
(let ((.def_411 (and .def_388 .def_410)))
(let ((.def_400 (not .def_399)))
(let ((.def_412 (or .def_400 .def_411)))
(let ((.def_413 (or .def_397 .def_412)))
(let ((.def_107 (not b.counter.0__AT1)))
(let ((.def_95 (not b.counter.1__AT1)))
(let ((.def_392 (and .def_95 .def_107)))
(let ((.def_102 (not b.counter.2__AT1)))
(let ((.def_393 (and .def_102 .def_392)))
(let ((.def_389 (and .def_56 .def_388)))
(let ((.def_386 (or .def_383 .def_385)))
(let ((.def_376 (or .def_261 .def_273)))
(let ((.def_380 (or b.counter.3__AT2 .def_376)))
(let ((.def_377 (or b.counter.2__AT2 .def_376)))
(let ((.def_375 (or .def_268 .def_273)))
(let ((.def_378 (and .def_375 .def_377)))
(let ((.def_379 (or .def_283 .def_378)))
(let ((.def_381 (and .def_379 .def_380)))
(let ((.def_387 (and .def_381 .def_386)))
(let ((.def_390 (and .def_387 .def_389)))
(let ((.def_235 (<= 0.0 b.delta__AT1)))
(let ((.def_223 (not b.EVENT.0__AT1)))
(let ((.def_221 (not b.EVENT.1__AT1)))
(let ((.def_232 (and .def_221 .def_223)))
(let ((.def_233 (not .def_232)))
(let ((.def_371 (or .def_233 .def_235)))
(let ((.def_372 (or b.EVENT.1__AT1 .def_371)))
(let ((.def_305 (= b.counter.0__AT1 b.counter.0__AT2)))
(let ((.def_303 (= b.counter.1__AT1 b.counter.1__AT2)))
(let ((.def_301 (= b.counter.2__AT1 b.counter.2__AT2)))
(let ((.def_300 (= b.counter.3__AT1 b.counter.3__AT2)))
(let ((.def_302 (and .def_300 .def_301)))
(let ((.def_304 (and .def_302 .def_303)))
(let ((.def_306 (and .def_304 .def_305)))
(let ((.def_368 (or .def_233 .def_306)))
(let ((.def_369 (or b.EVENT.1__AT1 .def_368)))
(let ((.def_356 (* (- 5.0) b.speed_y__AT2)))
(let ((.def_357 (* (- 49.0) b.delta__AT1)))
(let ((.def_361 (+ .def_357 .def_356)))
(let ((.def_359 (* 5.0 b.speed_y__AT1)))
(let ((.def_362 (+ .def_359 .def_361)))
(let ((.def_363 (= .def_362 0.0 )))
(let ((.def_347 (* b.speed_y__AT1 b.delta__AT1)))
(let ((.def_348 (* 10.0 .def_347)))
(let ((.def_345 (* b.delta__AT1 b.delta__AT1)))
(let ((.def_346 (* (- 49.0) .def_345)))
(let ((.def_349 (+ .def_346 .def_348)))
(let ((.def_350 (* (- 10.0) b.y__AT2)))
(let ((.def_353 (+ .def_350 .def_349)))
(let ((.def_243 (* 10.0 b.y__AT1)))
(let ((.def_354 (+ .def_243 .def_353)))
(let ((.def_355 (= .def_354 0.0 )))
(let ((.def_364 (and .def_355 .def_363)))
(let ((.def_365 (or .def_233 .def_364)))
(let ((.def_311 (= b.y__AT1 b.y__AT2)))
(let ((.def_299 (= b.speed_y__AT1 b.speed_y__AT2)))
(let ((.def_342 (and .def_299 .def_311)))
(let ((.def_339 (= b.delta__AT1 0.0 )))
(let ((.def_340 (and .def_232 .def_339)))
(let ((.def_341 (not .def_340)))
(let ((.def_343 (or .def_341 .def_342)))
(let ((.def_344 (or b.EVENT.1__AT1 .def_343)))
(let ((.def_366 (and .def_344 .def_365)))
(let ((.def_321 (= b.time__AT1 b.time__AT2)))
(let ((.def_333 (and .def_311 .def_321)))
(let ((.def_334 (and .def_299 .def_333)))
(let ((.def_335 (and .def_306 .def_334)))
(let ((.def_336 (or .def_221 .def_335)))
(let ((.def_324 (* (- 1.0) b.time__AT2)))
(let ((.def_327 (+ b.delta__AT1 .def_324)))
(let ((.def_328 (+ b.time__AT1 .def_327)))
(let ((.def_329 (= .def_328 0.0 )))
(let ((.def_330 (or .def_233 .def_329)))
(let ((.def_331 (or b.EVENT.1__AT1 .def_330)))
(let ((.def_322 (or .def_232 .def_321)))
(let ((.def_323 (or b.EVENT.1__AT1 .def_322)))
(let ((.def_332 (and .def_323 .def_331)))
(let ((.def_337 (and .def_332 .def_336)))
(let ((.def_317 (= .def_233 b.event_is_timed__AT2)))
(let ((.def_315 (= b.event_is_timed__AT1 .def_232)))
(let ((.def_318 (and .def_315 .def_317)))
(let ((.def_307 (and .def_299 .def_306)))
(let ((.def_252 (<= 0.0 b.speed_y__AT1)))
(let ((.def_253 (not .def_252)))
(let ((.def_251 (= b.y__AT1 0.0 )))
(let ((.def_254 (and .def_251 .def_253)))
(let ((.def_308 (or .def_254 .def_307)))
(let ((.def_274 (or b.counter.0__AT1 .def_273)))
(let ((.def_272 (or .def_107 b.counter.0__AT2)))
(let ((.def_275 (and .def_272 .def_274)))
(let ((.def_276 (and .def_261 .def_275)))
(let ((.def_277 (or b.counter.1__AT1 .def_276)))
(let ((.def_271 (or .def_95 b.counter.1__AT2)))
(let ((.def_278 (and .def_271 .def_277)))
(let ((.def_291 (and .def_268 .def_278)))
(let ((.def_292 (or b.counter.2__AT1 .def_291)))
(let ((.def_286 (and .def_107 .def_261)))
(let ((.def_287 (or b.counter.1__AT1 .def_286)))
(let ((.def_288 (and .def_271 .def_287)))
(let ((.def_289 (and b.counter.2__AT2 .def_288)))
(let ((.def_290 (or .def_102 .def_289)))
(let ((.def_293 (and .def_290 .def_292)))
(let ((.def_294 (and b.counter.3__AT2 .def_293)))
(let ((.def_295 (or b.counter.3__AT1 .def_294)))
(let ((.def_279 (and b.counter.2__AT2 .def_278)))
(let ((.def_280 (or b.counter.2__AT1 .def_279)))
(let ((.def_265 (or b.counter.1__AT1 b.counter.1__AT2)))
(let ((.def_263 (and .def_261 b.counter.0__AT2)))
(let ((.def_264 (or .def_95 .def_263)))
(let ((.def_266 (and .def_264 .def_265)))
(let ((.def_269 (and .def_266 .def_268)))
(let ((.def_270 (or .def_102 .def_269)))
(let ((.def_281 (and .def_270 .def_280)))
(let ((.def_284 (and .def_281 .def_283)))
(let ((.def_117 (not b.counter.3__AT1)))
(let ((.def_285 (or .def_117 .def_284)))
(let ((.def_296 (and .def_285 .def_295)))
(let ((.def_256 (* (- 1.0) b.speed_y__AT1)))
(let ((.def_257 (* .def_90 .def_256)))
(let ((.def_259 (= .def_257 b.speed_y__AT2)))
(let ((.def_297 (and .def_259 .def_296)))
(let ((.def_255 (not .def_254)))
(let ((.def_298 (or .def_255 .def_297)))
(let ((.def_309 (and .def_298 .def_308)))
(let ((.def_312 (and .def_309 .def_311)))
(let ((.def_313 (or .def_232 .def_312)))
(let ((.def_314 (or b.EVENT.1__AT1 .def_313)))
(let ((.def_319 (and .def_314 .def_318)))
(let ((.def_338 (and .def_319 .def_337)))
(let ((.def_367 (and .def_338 .def_366)))
(let ((.def_370 (and .def_367 .def_369)))
(let ((.def_373 (and .def_370 .def_372)))
(let ((.def_374 (and .def_221 .def_373)))
(let ((.def_391 (and .def_374 .def_390)))
(let ((.def_394 (and .def_391 .def_393)))
(let ((.def_239 (* 49.0 b.delta__AT1)))
(let ((.def_240 (* b.delta__AT1 .def_239)))
(let ((.def_241 (* (- 1.0) .def_240)))
(let ((.def_237 (* 10.0 b.delta__AT1)))
(let ((.def_238 (* b.speed_y__AT1 .def_237)))
(let ((.def_242 (+ .def_238 .def_241)))
(let ((.def_245 (+ .def_243 .def_242)))
(let ((.def_246 (<= 0.0 .def_245)))
(let ((.def_226 (<= 0.0 b.y__AT1)))
(let ((.def_247 (and .def_226 .def_246)))
(let ((.def_236 (not .def_235)))
(let ((.def_248 (or .def_236 .def_247)))
(let ((.def_249 (or .def_233 .def_248)))
(let ((.def_227 (and .def_56 .def_226)))
(let ((.def_224 (or .def_221 .def_223)))
(let ((.def_214 (or .def_95 .def_107)))
(let ((.def_218 (or b.counter.3__AT1 .def_214)))
(let ((.def_215 (or b.counter.2__AT1 .def_214)))
(let ((.def_213 (or .def_102 .def_107)))
(let ((.def_216 (and .def_213 .def_215)))
(let ((.def_217 (or .def_117 .def_216)))
(let ((.def_219 (and .def_217 .def_218)))
(let ((.def_225 (and .def_219 .def_224)))
(let ((.def_228 (and .def_225 .def_227)))
(let ((.def_65 (<= 0.0 b.delta__AT0)))
(let ((.def_46 (not b.EVENT.0__AT0)))
(let ((.def_44 (not b.EVENT.1__AT0)))
(let ((.def_62 (and .def_44 .def_46)))
(let ((.def_63 (not .def_62)))
(let ((.def_209 (or .def_63 .def_65)))
(let ((.def_210 (or b.EVENT.1__AT0 .def_209)))
(let ((.def_139 (= b.counter.0__AT0 b.counter.0__AT1)))
(let ((.def_137 (= b.counter.1__AT0 b.counter.1__AT1)))
(let ((.def_135 (= b.counter.2__AT0 b.counter.2__AT1)))
(let ((.def_134 (= b.counter.3__AT0 b.counter.3__AT1)))
(let ((.def_136 (and .def_134 .def_135)))
(let ((.def_138 (and .def_136 .def_137)))
(let ((.def_140 (and .def_138 .def_139)))
(let ((.def_206 (or .def_63 .def_140)))
(let ((.def_207 (or b.EVENT.1__AT0 .def_206)))
(let ((.def_194 (* (- 5.0) b.speed_y__AT1)))
(let ((.def_195 (* (- 49.0) b.delta__AT0)))
(let ((.def_199 (+ .def_195 .def_194)))
(let ((.def_197 (* 5.0 b.speed_y__AT0)))
(let ((.def_200 (+ .def_197 .def_199)))
(let ((.def_201 (= .def_200 0.0 )))
(let ((.def_182 (* b.speed_y__AT0 b.delta__AT0)))
(let ((.def_183 (* 10.0 .def_182)))
(let ((.def_179 (* b.delta__AT0 b.delta__AT0)))
(let ((.def_181 (* (- 49.0) .def_179)))
(let ((.def_184 (+ .def_181 .def_183)))
(let ((.def_186 (* (- 10.0) b.y__AT1)))
(let ((.def_189 (+ .def_186 .def_184)))
(let ((.def_75 (* 10.0 b.y__AT0)))
(let ((.def_190 (+ .def_75 .def_189)))
(let ((.def_191 (= .def_190 0.0 )))
(let ((.def_202 (and .def_191 .def_201)))
(let ((.def_203 (or .def_63 .def_202)))
(let ((.def_145 (= b.y__AT0 b.y__AT1)))
(let ((.def_133 (= b.speed_y__AT0 b.speed_y__AT1)))
(let ((.def_176 (and .def_133 .def_145)))
(let ((.def_173 (= b.delta__AT0 0.0 )))
(let ((.def_174 (and .def_62 .def_173)))
(let ((.def_175 (not .def_174)))
(let ((.def_177 (or .def_175 .def_176)))
(let ((.def_178 (or b.EVENT.1__AT0 .def_177)))
(let ((.def_204 (and .def_178 .def_203)))
(let ((.def_155 (= b.time__AT0 b.time__AT1)))
(let ((.def_167 (and .def_145 .def_155)))
(let ((.def_168 (and .def_133 .def_167)))
(let ((.def_169 (and .def_140 .def_168)))
(let ((.def_170 (or .def_44 .def_169)))
(let ((.def_158 (* (- 1.0) b.time__AT1)))
(let ((.def_161 (+ b.delta__AT0 .def_158)))
(let ((.def_162 (+ b.time__AT0 .def_161)))
(let ((.def_163 (= .def_162 0.0 )))
(let ((.def_164 (or .def_63 .def_163)))
(let ((.def_165 (or b.EVENT.1__AT0 .def_164)))
(let ((.def_156 (or .def_62 .def_155)))
(let ((.def_157 (or b.EVENT.1__AT0 .def_156)))
(let ((.def_166 (and .def_157 .def_165)))
(let ((.def_171 (and .def_166 .def_170)))
(let ((.def_151 (= .def_63 b.event_is_timed__AT1)))
(let ((.def_149 (= b.event_is_timed__AT0 .def_62)))
(let ((.def_152 (and .def_149 .def_151)))
(let ((.def_141 (and .def_133 .def_140)))
(let ((.def_84 (<= 0.0 b.speed_y__AT0)))
(let ((.def_85 (not .def_84)))
(let ((.def_83 (= b.y__AT0 0.0 )))
(let ((.def_86 (and .def_83 .def_85)))
(let ((.def_142 (or .def_86 .def_141)))
(let ((.def_108 (or b.counter.0__AT0 .def_107)))
(let ((.def_27 (not b.counter.0__AT0)))
(let ((.def_106 (or .def_27 b.counter.0__AT1)))
(let ((.def_109 (and .def_106 .def_108)))
(let ((.def_110 (and .def_95 .def_109)))
(let ((.def_111 (or b.counter.1__AT0 .def_110)))
(let ((.def_25 (not b.counter.1__AT0)))
(let ((.def_105 (or .def_25 b.counter.1__AT1)))
(let ((.def_112 (and .def_105 .def_111)))
(let ((.def_125 (and .def_102 .def_112)))
(let ((.def_126 (or b.counter.2__AT0 .def_125)))
(let ((.def_120 (and .def_27 .def_95)))
(let ((.def_121 (or b.counter.1__AT0 .def_120)))
(let ((.def_122 (and .def_105 .def_121)))
(let ((.def_123 (and b.counter.2__AT1 .def_122)))
(let ((.def_30 (not b.counter.2__AT0)))
(let ((.def_124 (or .def_30 .def_123)))
(let ((.def_127 (and .def_124 .def_126)))
(let ((.def_128 (and b.counter.3__AT1 .def_127)))
(let ((.def_129 (or b.counter.3__AT0 .def_128)))
(let ((.def_113 (and b.counter.2__AT1 .def_112)))
(let ((.def_114 (or b.counter.2__AT0 .def_113)))
(let ((.def_99 (or b.counter.1__AT0 b.counter.1__AT1)))
(let ((.def_97 (and .def_95 b.counter.0__AT1)))
(let ((.def_98 (or .def_25 .def_97)))
(let ((.def_100 (and .def_98 .def_99)))
(let ((.def_103 (and .def_100 .def_102)))
(let ((.def_104 (or .def_30 .def_103)))
(let ((.def_115 (and .def_104 .def_114)))
(let ((.def_118 (and .def_115 .def_117)))
(let ((.def_33 (not b.counter.3__AT0)))
(let ((.def_119 (or .def_33 .def_118)))
(let ((.def_130 (and .def_119 .def_129)))
(let ((.def_88 (* (- 1.0) b.speed_y__AT0)))
(let ((.def_91 (* .def_88 .def_90)))
(let ((.def_93 (= .def_91 b.speed_y__AT1)))
(let ((.def_131 (and .def_93 .def_130)))
(let ((.def_87 (not .def_86)))
(let ((.def_132 (or .def_87 .def_131)))
(let ((.def_143 (and .def_132 .def_142)))
(let ((.def_146 (and .def_143 .def_145)))
(let ((.def_147 (or .def_62 .def_146)))
(let ((.def_148 (or b.EVENT.1__AT0 .def_147)))
(let ((.def_153 (and .def_148 .def_152)))
(let ((.def_172 (and .def_153 .def_171)))
(let ((.def_205 (and .def_172 .def_204)))
(let ((.def_208 (and .def_205 .def_207)))
(let ((.def_211 (and .def_208 .def_210)))
(let ((.def_212 (and .def_44 .def_211)))
(let ((.def_229 (and .def_212 .def_228)))
(let ((.def_28 (and .def_25 .def_27)))
(let ((.def_31 (and .def_28 .def_30)))
(let ((.def_230 (and .def_31 .def_229)))
(let ((.def_70 (* 49.0 b.delta__AT0)))
(let ((.def_71 (* b.delta__AT0 .def_70)))
(let ((.def_73 (* (- 1.0) .def_71)))
(let ((.def_67 (* 10.0 b.delta__AT0)))
(let ((.def_68 (* b.speed_y__AT0 .def_67)))
(let ((.def_74 (+ .def_68 .def_73)))
(let ((.def_77 (+ .def_75 .def_74)))
(let ((.def_78 (<= 0.0 .def_77)))
(let ((.def_57 (<= 0.0 b.y__AT0)))
(let ((.def_79 (and .def_57 .def_78)))
(let ((.def_66 (not .def_65)))
(let ((.def_80 (or .def_66 .def_79)))
(let ((.def_81 (or .def_63 .def_80)))
(let ((.def_58 (and .def_56 .def_57)))
(let ((.def_47 (or .def_44 .def_46)))
(let ((.def_37 (or .def_25 .def_27)))
(let ((.def_41 (or b.counter.3__AT0 .def_37)))
(let ((.def_38 (or b.counter.2__AT0 .def_37)))
(let ((.def_36 (or .def_27 .def_30)))
(let ((.def_39 (and .def_36 .def_38)))
(let ((.def_40 (or .def_33 .def_39)))
(let ((.def_42 (and .def_40 .def_41)))
(let ((.def_48 (and .def_42 .def_47)))
(let ((.def_59 (and .def_48 .def_58)))
(let ((.def_34 (and .def_31 .def_33)))
(let ((.def_22 (= b.speed_y__AT0 0.0 )))
(let ((.def_19 (= b.y__AT0 10.0 )))
(let ((.def_14 (= b.time__AT0 0.0 )))
(let ((.def_16 (and .def_14 b.event_is_timed__AT0)))
(let ((.def_20 (and .def_16 .def_19)))
(let ((.def_23 (and .def_20 .def_22)))
(let ((.def_35 (and .def_23 .def_34)))
(let ((.def_60 (and .def_35 .def_59)))
(let ((.def_7 (and .def_4 .def_6)))
(let ((.def_10 (and .def_7 .def_9)))
(let ((.def_11 (not .def_10)))
(let ((.def_61 (and .def_11 .def_60)))
(let ((.def_82 (and .def_61 .def_81)))
(let ((.def_231 (and .def_82 .def_230)))
(let ((.def_250 (and .def_231 .def_249)))
(let ((.def_395 (and .def_250 .def_394)))
(let ((.def_414 (and .def_395 .def_413)))
(let ((.def_559 (and .def_414 .def_558)))
(let ((.def_578 (and .def_559 .def_577)))
(let ((.def_717 (and .def_578 .def_716)))
(let ((.def_736 (and .def_717 .def_735)))
.def_736))))))))))))))))))))))))))))))))))))))))))))))))))))))))))))))))))))))))))))))))))))))))))))))))))))))))))))))))))))))))))))))))))))))))))))))))))))))))))))))))))))))))))))))))))))))))))))))))))))))))))))))))))))))))))))))))))))))))))))))))))))))))))))))))))))))))))))))))))))))))))))))))))))))))))))))))))))))))))))))))))))))))))))))))))))))))))))))))))))))))))))))))))))))))))))))))))))))))))))))))))))))))))))))))))))))))))))))))))))))))))))))))))))))))))))))))))))))))))))))))))))))))))))))))))))))))))))))))))))))))))))))))))))))))))))))))))))))))))))))))))))))))))))))))))))))))))))))))))))))))))))))))))))))))))))))))))))))))))))))
(check-sat)
(exit)
