z3_origin/ball_count_1d_plain.02.qfree_global_4.txt
sat
(:cnf-encoding-aux-vars 7
 :max-memory            18.82
 :memory                18.53
 :nlsat-arith-var       6
 :nlsat-atoms           99
 :nlsat-bool-var        16
 :nlsat-clauses         68
 :nlsat-conflicts       92
 :nlsat-decisions       78
 :nlsat-propagations    675
 :nlsat-stages          71
 :num-allocs            161280
 :rlimit-count          33046
 :solve-eqs-elim-vars   41
 :solve-eqs-steps       116
 :time                  0.01
 :total-time            0.03)
